7542
0 1 0 0 0 1 0 0 0 0 1 0 0 1 0 1 0 0 1 1
15 10 19 10 13 13 5 5 15 1 5 19 18 13 13 13 13 5 5 15 10 10 10 19 10 10 1 19 19 15 1 1 19 19 15 5 13 13 10 10 10 13 13 13 5 5 5 5 5 19 15 5 10 10 10 10 13 10 18 13 13 5 1 5 15 15 10 19 1 1 15 10 10 10 10 19 19 19 19 19 19 5 5 13 18 13 13 5 18 1 13 18 18 18 18 18 13 18 18 13
